maximize cost: 84 x1645 + 84 x1646 + 84 x1647 + 84 x1648
 + 84 x1649 + 84 x164a + 84 x164b + 84 x164c + 84 x164d
 + 85 x164e + 85 x164f + 85 x1650 + 86 x1651 + 416 x1661
 + 315 x1662 + 185 x1668 + 65 x1669 + 443 x16be + 192 x166f
 + 68 x1670 + 196 x1677 + 68 x1678 + 200 x167f + 68 x1680
 + 204 x1687 + 68 x1688 + 208 x168f + 68 x1690 + 212 x1697
 + 68 x1698 + 216 x169f + 68 x16a0 + 220 x16a7 + 68 x16a8
 + 72 x16af + 72 x16b0 + 152 x16b4 + 72 x16b7 + 72 x16b8
 + 130 x16cf + 130 x16d0 + 145 x16d3 + 145 x16d4 + 75 x16d7
 + 75 x16d8 + 44 x16db + 44 x16dc + 44 x16df + 44 x16e0
 + 44 x16e3 + 44 x16e4 + 44 x16e7 + 44 x16e8 + 44 x16eb
 + 44 x16ec + 12 x1715 + 21 x1716 + 8 x1717 + 8 x1718
 + 12 x1719 + 41 x171a + 32 x171b + 34 x171c + 22 x171d
 + 24 x171e + 7 x171f + 7 x1720 + 7 x1825 + 5 x1721
 + 44 x1732 + 44 x1733 + 272 x1734 + 272 x1735 + 262 x1736
 + 262 x1737 + 252 x1738 + 252 x1739 + 272 x173a + 272 x173b
 + 303 x173c + 303 x173d + 216 x1742 + 216 x1743 + 216 x1744
 + 216 x1745 + 44 x1748 + 44 x1749 + 44 x174c + 44 x174d
 + 44 x1750 + 44 x1751 + 44 x1754 + 44 x1755 + 44 x1758
 + 44 x1759 + 44 x175c + 44 x175d + 8 x1786 + 8 x1787
 + 12 x1788 + 7 x1789 + 32 x178a + 27 x178b + 22 x178c
 + 17 x178d + 7 x178e + 7 x178f + 8 x1790 + 8 x1791
 + 7 x1811 + 7 x1813 + 7 x1815 + 34 x1817 + 5 x1792
 + 44 x17a2 + 44 x17a3 + 44 x17a4 + 44 x17a5 + 272 x17a6
 + 272 x17a7 + 262 x17a8 + 262 x17a9 + 252 x17aa + 252 x17ab
 + 272 x17ac + 272 x17ad + 216 x17b4 + 216 x17b5 + 216 x17b6
 + 216 x17b7 + 216 x17b8 + 216 x17b9 + 13 x17be + 8 x17bf
 + 44 x17cb + 44 x17cc + 44 x17cd + 44 x17ce + 272 x17cf
 + 272 x17d0 + 216 x17d7 + 216 x17d8 + 216 x17d9 + 216 x17da
 + 216 x17db + 216 x17dc + 13 x17e1 + 8 x17e2 + 44 x17ed
 + 44 x17ee + 216 x17f1 + 216 x17f2 + 13 x17f7 + 8 x17f8
 + 44 x17ff + 44 x1800 + 216 x1803 + 216 x1804 + 13 x1809
 + 8 x180a + 7 x1840 + 7 x1841 + 7 x1842 + 7 x1843
 + 184 x1859 + 360 x185a + 153 x185b + 329 x185c + 143 x185d
 + 319 x185e + 145 x185f + 309 x1860 + 138 x1861 + 302 x1862
 + 90 x1879 + 90 x187a + 216 x187d + 216 x187e + 44 x1881
 + 44 x1882 + 44 x1885 + 44 x1886 + 44 x1889 + 44 x188a
 + 44 x188d + 44 x188e + 44 x1891 + 44 x1892 + 44 x1895
 + 44 x1896 + 8 x18bf + 8 x18c0 + 12 x18c1 + 7 x18c2
 + 32 x18c3 + 27 x18c4 + 22 x18c5 + 17 x18c6 + 7 x18c7
 + 7 x18c8 + 8 x18c9 + 8 x18ca + 5 x18cb + 44 x18d9
 + 44 x18da + 272 x18db + 272 x18dc + 262 x18dd + 262 x18de
 + 252 x18df + 252 x18e0 + 272 x18e1 + 272 x18e2 + 216 x18e5
 + 216 x18e6 + 44 x18e9 + 44 x18ea + 44 x18ed + 44 x18ee
 + 44 x18f1 + 44 x18f2 + 44 x18f5 + 44 x18f6 + 44 x18f9
 + 44 x18fa + 44 x18fd + 44 x18fe + 8 x1927 + 8 x1928
 + 12 x1929 + 7 x192a + 32 x192b + 27 x192c + 22 x192d
 + 17 x192e + 7 x192f + 7 x1930 + 8 x1931 + 8 x1932
 + 5 x1933 + 44 x1941 + 44 x1942 + 272 x1943 + 272 x1944
 + 262 x1945 + 262 x1946 + 252 x1947 + 252 x1948 + 272 x1949
 + 272 x194a + 216 x194d + 216 x194e + 13 x1953 + 8 x1954
 + 272 x195c + 272 x195d + 216 x1960 + 216 x1961 + 13 x1966
 + 8 x1967 + 7 x1992 + 7 x1993 + 7 x1994 + 7 x1995
 + 7 x1996 + 7 x1997 + 7 x1998 + 7 x1999 + 7 x199a
 + 34 x199b + 34 x199c + 34 x199d + 7 x199e + 7 x199f
 + 7 x19a0 + 7 x19a1 + 7 x19a2 + 7 x19a3 + 7 x19a4
 + 7 x19a5 + 7 x19a6 + 34 x19a7 + 34 x19a8 + 34 x19a9
 + 7 x19ac + 7 x19af + 7 x19b2 + 7 x19b5 + 7 x19b7
 + 7 x19ba + 7 x19bd + 7 x19c0 + 7 x19c2 + 7 x19c5
 + 7 x19c8 + 39 x19e6 + 40 x19e7 + 39 x19e8 + 40 x19e9
 + 39 x19ea + 40 x19eb + 39 x19ec + 40 x19ed + 527 x1a26
 + 527 x1a27 + 527 x1a28 + 534 x1a29 + 534 x1a2a + 534 x1a2b
 + 536 x1a2c + 536 x1a2d + 536 x1a2e + 546 x1a2f + 546 x1a30
 + 546 x1a31 + 262 x1d2c + 269 x1d2d + 279 x1d2e + 289 x1d2f
 + 39 x1a0e + 40 x1a0f + 39 x1a10 + 40 x1a11 + 39 x1a12
 + 40 x1a13 + 39 x1a14 + 40 x1a15 + 8 x1a34 + 8 x1a36
 + 8 x1a38 + 39 x1a41 + 224 x1a42 + 441 x1cde + 441 x1cdf
 + 441 x1ce0 + 90 x1a49 + 90 x1a4a + 216 x1a4d + 216 x1a4e
 + 44 x1a51 + 44 x1a52 + 44 x1a55 + 44 x1a56 + 44 x1a59
 + 44 x1a5a + 44 x1a5d + 44 x1a5e + 44 x1a61 + 44 x1a62
 + 44 x1a65 + 44 x1a66 + 8 x1a8f + 8 x1a90 + 12 x1a91
 + 7 x1a92 + 32 x1a93 + 27 x1a94 + 22 x1a95 + 17 x1a96
 + 7 x1a97 + 7 x1a98 + 8 x1a99 + 8 x1a9a + 5 x1a9b
 + 44 x1aa9 + 44 x1aaa + 272 x1aab + 272 x1aac + 262 x1aad
 + 262 x1aae + 252 x1aaf + 252 x1ab0 + 272 x1ab1 + 272 x1ab2
 + 216 x1ab5 + 216 x1ab6 + 44 x1ab9 + 44 x1aba + 44 x1abd
 + 44 x1abe + 44 x1ac1 + 44 x1ac2 + 44 x1ac5 + 44 x1ac6
 + 44 x1ac9 + 44 x1aca + 44 x1acd + 44 x1ace + 8 x1af7
 + 8 x1af8 + 12 x1af9 + 7 x1afa + 32 x1afb + 27 x1afc
 + 22 x1afd + 17 x1afe + 7 x1aff + 7 x1b00 + 8 x1b01
 + 8 x1b02 + 5 x1b03 + 44 x1b11 + 44 x1b12 + 272 x1b13
 + 272 x1b14 + 262 x1b15 + 262 x1b16 + 252 x1b17 + 252 x1b18
 + 272 x1b19 + 272 x1b1a + 216 x1b1d + 216 x1b1e + 13 x1b23
 + 8 x1b24 + 272 x1b2c + 272 x1b2d + 216 x1b30 + 216 x1b31
 + 13 x1b36 + 8 x1b37 + 7 x1b62 + 7 x1b63 + 7 x1b64
 + 7 x1b65 + 7 x1b66 + 7 x1b67 + 7 x1b68 + 7 x1b69
 + 7 x1b6a + 34 x1b6b + 34 x1b6c + 34 x1b6d + 7 x1b6e
 + 7 x1b6f + 7 x1b70 + 7 x1b71 + 7 x1b72 + 7 x1b73
 + 7 x1b74 + 7 x1b75 + 7 x1b76 + 34 x1b77 + 34 x1b78
 + 34 x1b79 + 7 x1b7c + 7 x1b7f + 7 x1b82 + 7 x1b85
 + 7 x1b87 + 7 x1b8a + 7 x1b8d + 7 x1b90 + 7 x1b92
 + 7 x1b95 + 7 x1b98 + 39 x1bce + 39 x1bcf + 39 x1bd0
 + 39 x1bd1 + 39 x1bd2 + 39 x1bd3 + 39 x1bd4 + 39 x1bd5
 + 39 x1bd6 + 39 x1bd7 + 39 x1bd8 + 39 x1bd9 + 39 x1bda
 + 39 x1bdb + 39 x1bdc + 39 x1bdd + 519 x1be6 + 519 x1be7
 + 519 x1be8 + 526 x1be9 + 526 x1bea + 526 x1beb + 536 x1bec
 + 536 x1bed + 536 x1bee + 546 x1bef + 546 x1bf0 + 546 x1bf1
 + 1 x1bde + 1 x1bdf + 1 x1be0 + 1 x1be1 + 262 x1d30
 + 269 x1d31 + 279 x1d32 + 289 x1d33 + 8 x1bf4 + 8 x1bf6
 + 8 x1bf8 + 39 x1c01 + 40 x1c02 + 441 x1c11 + 441 x1c12
 + 441 x1c13 + 184 x1c2b + 39 x1c0b + 40 x1c0c + 228 x1c16
 + 340 x1c25 + 340 x1c26 + 340 x1c27 + 90 x1c2f + 90 x1c30
 + 216 x1c33 + 216 x1c34 + 13 x1c39 + 8 x1c3a + 272 x1c41
 + 272 x1c42 + 216 x1c45 + 216 x1c46 + 13 x1c4b + 8 x1c4c
 + 7 x1c55 + 7 x1c56 + 7 x1c57 + 7 x1c5d + 7 x1c5f
 + 7 x1c7e + 39 x1c8b + 40 x1c8c + 39 x1c8d + 40 x1c8e
 + 39 x1c8f + 40 x1c90 + 39 x1c91 + 40 x1c92 + 519 x1c9f
 + 519 x1ca0 + 519 x1ca1 + 526 x1ca2 + 526 x1ca3 + 526 x1ca4
 + 536 x1ca5 + 536 x1ca6 + 536 x1ca7 + 546 x1ca8 + 546 x1ca9
 + 546 x1caa + 39 x1cb4 + 224 x1cb5 + 441 x1cb8 + 441 x1cb9
 + 441 x1cba + 90 x1cc2 + 90 x1cc3 + 216 x1cc6 + 216 x1cc7
 + 13 x1ccc + 8 x1ccd + 7 x1cd5 + 7 x1cd6 + 7 x1cd7
 + 340 x1ce1 + 340 x1ce2 + 340 x1ce3 + 140 x1ce6 + 340 x1cf0
 + 340 x1cf1 + 340 x1cf2 + 39 x1cfc + 224 x1cfd + 441 x1d1d
 + 441 x1d1e + 441 x1d1f + 90 x1d04 + 90 x1d05 + 216 x1d08
 + 216 x1d09 + 13 x1d0e + 8 x1d0f + 7 x1d17 + 7 x1d18
 + 7 x1d19 + 340 x1d26 + 340 x1d27 + 340 x1d28 + 90 x1d3e
 + 90 x1d3f + 216 x1d42 + 216 x1d43 + 13 x1d48 + 8 x1d49
 + 272 x1d50 + 272 x1d51 + 216 x1d54 + 216 x1d55 + 13 x1d5a
 + 8 x1d5b + 7 x1d64 + 7 x1d65 + 7 x1d66 + 7 x1d6c
 + 7 x1d6e + 7 x1d8d + 39 x1d9a + 329 x1d9b + 39 x1d9c
 + 319 x1d9d + 39 x1d9e + 309 x1d9f + 39 x1da0 + 302 x1da1
 + 527 x1daa + 527 x1dab + 527 x1dac + 534 x1dad + 534 x1dae
 + 534 x1daf + 536 x1db0 + 536 x1db1 + 536 x1db2 + 546 x1db3
 + 546 x1db4 + 546 x1db5 + 90 x1dc3 + 90 x1dc4 + 216 x1dc7
 + 216 x1dc8 + 13 x1dcd + 8 x1dce + 7 x1dd6 + 7 x1dd7
 + 7 x1dd8 + 39 x1de2 + 224 x1de3 + 441 x1e03 + 441 x1e04
 + 441 x1e05 + 90 x1dea + 90 x1deb + 216 x1dee + 216 x1def
 + 13 x1df4 + 8 x1df5 + 7 x1dfd + 7 x1dfe + 7 x1dff
 + 8 x1e12 + 8 x1e13 + 262 x1e21 + 224 x1e22 + 63 x1e23
 + 288 x1e24 + 59 x1e25 + 284 x1e26 + 287 x1e2d + 90 x1e39
 + 90 x1e3a + 216 x1e3d + 216 x1e3e + 13 x1e43 + 8 x1e44
 + 7 x1e4c + 7 x1e4d + 7 x1e4e + 7 x1e59 + 64 x1e5e
subject to
z = 0
o = 1
+1 x1645 +1 x1646 +1 x1647 +1 x1648 +1 x1649 +1 x164a +1 x164b +1 x164c
+1 x164d +1 x164e +1 x164f +1 x1650 +1 x1651 = +1
+1 x1e5e = +1
+1 x1645 +1 x1646 +1 x1647 +1 x1648 +1 x1649 +1 x164a +1 x164b +1 x164c
+1 x164d +1 x164e +1 x164f +1 x1650 +1 x1651 -1 x165f = +0
+1 x165f -1 x1661 -1 x1662 = +0
+1 x1662 -1 x1668 -1 x1669 = +0
+1 x1661 +1 x1668 +1 x166f +1 x1677 +1 x167f +1 x1687 +1 x168f +1 x1697
+1 x169f +1 x16a7 +1 x16b4 -1 x16be +0 x16bf = +0
+1 x1669 -1 x166f -1 x1670 = +0
+1 x1670 -1 x1677 -1 x1678 = +0
+1 x1678 -1 x167f -1 x1680 = +0
+1 x1680 -1 x1687 -1 x1688 = +0
+1 x1688 -1 x168f -1 x1690 = +0
+1 x1690 -1 x1697 -1 x1698 = +0
+1 x1698 -1 x169f -1 x16a0 = +0
+1 x16a0 -1 x16a7 -1 x16a8 = +0
+1 x16a8 -1 x16af -1 x16b0 = +0
+1 x16af -1 x16b4 +1 x16b7 = +0
+1 x16b0 -1 x16b5 +1 x16b8 = +0
+1 x16b5 -1 x16b7 -1 x16b8 = +0
+1 x16be -1 x16cf -1 x16d0 = +0
+1 x16d0 -1 x16d3 -1 x16d4 = +0
+1 x16d3 -1 x16d7 -1 x16d8 = +0
+1 x16d8 +1 x16ec -1 x16f0 +0 x16f1 = +0
+1 x16d7 -1 x16da +1 x16eb = +0
+1 x16da -1 x16db -1 x16dc = +0
+1 x16dc -1 x16f2 +0 x16f3 = +0
+1 x16db -1 x16df -1 x16e0 = +0
+1 x16e0 -1 x16f4 +0 x16f5 = +0
+1 x16df -1 x16e3 -1 x16e4 = +0
+1 x16e4 -1 x16f6 +0 x16f7 = +0
+1 x16e3 -1 x16e7 -1 x16e8 = +0
+1 x16e8 -1 x16f8 +0 x16f9 = +0
+1 x16e7 -1 x16eb -1 x16ec = +0
+1 x16d4 -1 x1715 -1 x1716 = +0
+1 x16f0 -1 x1717 -1 x1718 = +0
+1 x16f2 -1 x1719 -1 x171a = +0
+1 x16f4 -1 x171b -1 x171c = +0
+1 x16f6 -1 x171d -1 x171e = +0
+1 x16f8 -1 x171f -1 x1720 = +0
+1 x1718 +1 x1720 -1 x1825 = +0
+1 x1717 +1 x171f -1 x1721 = +0
+1 x16cf -1 x1732 -1 x1733 = +0
+1 x1721 -1 x1734 -1 x1735 = +0
+1 x171d -1 x1736 -1 x1737 = +0
+1 x171b -1 x1738 -1 x1739 = +0
+1 x1719 -1 x173a -1 x173b = +0
+1 x1715 -1 x173c -1 x173d = +0
+1 x1734 +1 x1736 +1 x1738 +1 x173a +1 x173c -1 x1797 = +0
+1 x1735 +1 x1737 +1 x1739 +1 x173b +1 x173d -1 x173f = +0
+1 x1733 -1 x1742 -1 x1743 = +0
+1 x173f -1 x1744 -1 x1745 = +0
+1 x1742 +1 x1744 -1 x1746 = +0
+1 x1743 +1 x1745 -1 x177a = +0
+1 x1746 -1 x1747 +1 x17ba +1 x17dd +1 x17f1 +1 x1803 = +0
+1 x1747 -1 x1748 -1 x1749 = +0
+1 x1749 +1 x175d -1 x1761 +0 x1762 = +0
+1 x1748 -1 x174b +1 x175c = +0
+1 x174b -1 x174c -1 x174d = +0
+1 x174d -1 x1763 +0 x1764 = +0
+1 x174c -1 x1750 -1 x1751 = +0
+1 x1751 -1 x1765 +0 x1766 = +0
+1 x1750 -1 x1754 -1 x1755 = +0
+1 x1755 -1 x1767 +0 x1768 = +0
+1 x1754 -1 x1758 -1 x1759 = +0
+1 x1759 -1 x1769 +0 x176a = +0
+1 x1758 -1 x175c -1 x175d = +0
+1 x177a -1 x1786 -1 x1787 = +0
+1 x1761 -1 x1788 -1 x1789 = +0
+1 x1763 -1 x178a -1 x178b = +0
+1 x1765 -1 x178c -1 x178d = +0
+1 x1767 -1 x178e -1 x178f = +0
+1 x1769 -1 x1790 -1 x1791 = +0
+1 x1787 +1 x178f +1 x1791 +1 x17bf +1 x17e2 +1 x17f8 +1 x180a -1 x1811
+0 x1812 = +0
+1 x178d -1 x1813 +0 x1814 = +0
+1 x178b -1 x1815 +0 x1816 = +0
+1 x1789 -1 x1817 +0 x1818 = +0
+1 x1786 +1 x178e +1 x1790 -1 x1792 = +0
+1 x1797 -1 x179d +1 x17c4 +1 x17cf = +0
+1 x1792 -1 x179e -1 x17c7 = +0
+1 x1732 -1 x17a2 -1 x17a3 = +0
+1 x179d -1 x17a4 -1 x17a5 = +0
+1 x179e -1 x17a6 -1 x17a7 = +0
+1 x178c -1 x17a8 -1 x17a9 = +0
+1 x178a -1 x17aa -1 x17ab = +0
+1 x1788 -1 x17ac -1 x17ad = +0
+1 x17a6 +1 x17a8 +1 x17aa +1 x17ac -1 x17c4 = +0
+1 x17a7 +1 x17a9 +1 x17ab +1 x17ad -1 x17b0 = +0
+1 x17a3 -1 x17b4 -1 x17b5 = +0
+1 x17a5 -1 x17b6 -1 x17b7 = +0
+1 x17b0 -1 x17b8 -1 x17b9 = +0
+1 x17b4 +1 x17b6 +1 x17b8 -1 x17ba = +0
+1 x17b5 +1 x17b7 +1 x17b9 -1 x17bc = +0
+1 x17bc -1 x17be -1 x17bf = +0
+1 x17a4 -1 x17c9 +1 x17cd +1 x17ff = +0
+1 x17be +1 x17c7 -1 x17ca +1 x17e1 +1 x17f7 +1 x1809 = +0
+1 x17a2 -1 x17cb -1 x17cc = +0
+1 x17c9 -1 x17cd -1 x17ce = +0
+1 x17ca -1 x17cf -1 x17d0 = +0
+1 x17cc -1 x17d7 -1 x17d8 = +0
+1 x17ce -1 x17d9 -1 x17da = +0
+1 x17d0 -1 x17db -1 x17dc = +0
+1 x17d7 +1 x17d9 +1 x17db -1 x17dd = +0
+1 x17d8 +1 x17da +1 x17dc -1 x17df = +0
+1 x17df -1 x17e1 -1 x17e2 = +0
+1 x17cb -1 x17ed -1 x17ee = +0
+1 x17ee -1 x17f1 -1 x17f2 = +0
+1 x17f2 -1 x17f7 -1 x17f8 = +0
+1 x17ed -1 x17ff -1 x1800 = +0
+1 x1800 -1 x1803 -1 x1804 = +0
+1 x1804 -1 x1809 -1 x180a = +0
+1 x171a +1 x1817 -1 x1840 = +0
+1 x171c +1 x1815 -1 x1841 = +0
+1 x171e +1 x1813 -1 x1842 = +0
+1 x1811 +1 x1825 -1 x1843 = +0
+1 x1716 -1 x1859 -1 x185a = +0
+1 x1843 -1 x185b -1 x185c = +0
+1 x1842 -1 x185d -1 x185e = +0
+1 x1841 -1 x185f -1 x1860 = +0
+1 x1840 -1 x1861 -1 x1862 = +0
+1 x185a +1 x185c +1 x185e +1 x1860 +1 x1862 -1 x1877 = +0
+1 x1877 -1 x1879 -1 x187a = +0
+1 x187a -1 x187d -1 x187e = +0
+1 x187d -1 x1880 +1 x1d42 +1 x1dc7 = +0
+1 x1880 -1 x1881 -1 x1882 = +0
+1 x1882 +1 x1896 -1 x189a +0 x189b = +0
+1 x1881 -1 x1884 +1 x1895 = +0
+1 x1884 -1 x1885 -1 x1886 = +0
+1 x1886 -1 x189c +0 x189d = +0
+1 x1885 -1 x1889 -1 x188a = +0
+1 x188a -1 x189e +0 x189f = +0
+1 x1889 -1 x188d -1 x188e = +0
+1 x188e -1 x18a0 +0 x18a1 = +0
+1 x188d -1 x1891 -1 x1892 = +0
+1 x1892 -1 x18a2 +0 x18a3 = +0
+1 x1891 -1 x1895 -1 x1896 = +0
+1 x187e -1 x18bf -1 x18c0 = +0
+1 x189a -1 x18c1 -1 x18c2 = +0
+1 x189c -1 x18c3 -1 x18c4 = +0
+1 x189e -1 x18c5 -1 x18c6 = +0
+1 x18a0 -1 x18c7 -1 x18c8 = +0
+1 x18a2 -1 x18c9 -1 x18ca = +0
+1 x18c0 +1 x18c8 +1 x18ca -1 x1982 = +0
+1 x18bf +1 x18c7 +1 x18c9 -1 x18cb = +0
+1 x1879 -1 x18d4 +1 x1d3e +1 x1dc3 = +0
+1 x18cb -1 x18d5 -1 x1d4e = +0
+1 x18d4 -1 x18d9 -1 x18da = +0
+1 x18d5 -1 x18db -1 x18dc = +0
+1 x18c5 -1 x18dd -1 x18de = +0
+1 x18c3 -1 x18df -1 x18e0 = +0
+1 x18c1 -1 x18e1 -1 x18e2 = +0
+1 x18d9 +1 x18db +1 x18dd +1 x18df +1 x18e1 -1 x1937 = +0
+1 x18da +1 x18dc +1 x18de +1 x18e0 +1 x18e2 -1 x18e3 = +0
+1 x18e3 -1 x18e5 -1 x18e6 = +0
+1 x18e5 -1 x18e8 +1 x194d +1 x1960 +1 x1d54 = +0
+1 x18e8 -1 x18e9 -1 x18ea = +0
+1 x18ea +1 x18fe -1 x1902 +0 x1903 = +0
+1 x18e9 -1 x18ec +1 x18fd = +0
+1 x18ec -1 x18ed -1 x18ee = +0
+1 x18ee -1 x1904 +0 x1905 = +0
+1 x18ed -1 x18f1 -1 x18f2 = +0
+1 x18f2 -1 x1906 +0 x1907 = +0
+1 x18f1 -1 x18f5 -1 x18f6 = +0
+1 x18f6 -1 x1908 +0 x1909 = +0
+1 x18f5 -1 x18f9 -1 x18fa = +0
+1 x18fa -1 x190a +0 x190b = +0
+1 x18f9 -1 x18fd -1 x18fe = +0
+1 x18e6 -1 x1927 -1 x1928 = +0
+1 x1902 -1 x1929 -1 x192a = +0
+1 x1904 -1 x192b -1 x192c = +0
+1 x1906 -1 x192d -1 x192e = +0
+1 x1908 -1 x192f -1 x1930 = +0
+1 x190a -1 x1931 -1 x1932 = +0
+1 x1928 +1 x1930 +1 x1932 +1 x1954 +1 x1967 -1 x196e +0 x196f +1 x1d5b
= +0
+1 x192e -1 x1970 +0 x1971 = +0
+1 x192c -1 x1972 +0 x1973 = +0
+1 x192a -1 x1974 +0 x1975 = +0
+1 x1927 +1 x192f +1 x1931 -1 x1933 = +0
+1 x1937 -1 x193c +1 x1957 +1 x195c +1 x1d50 = +0
+1 x1933 -1 x193d -1 x195a = +0
+1 x193c -1 x1941 -1 x1942 = +0
+1 x193d -1 x1943 -1 x1944 = +0
+1 x192d -1 x1945 -1 x1946 = +0
+1 x192b -1 x1947 -1 x1948 = +0
+1 x1929 -1 x1949 -1 x194a = +0
+1 x1941 +1 x1943 +1 x1945 +1 x1947 +1 x1949 -1 x1957 = +0
+1 x1942 +1 x1944 +1 x1946 +1 x1948 +1 x194a -1 x194b = +0
+1 x194b -1 x194d -1 x194e = +0
+1 x194e -1 x1953 -1 x1954 = +0
+1 x1953 +1 x195a -1 x195b +1 x1966 +1 x1d5a = +0
+1 x195b -1 x195c -1 x195d = +0
+1 x195d -1 x1960 -1 x1961 = +0
+1 x1961 -1 x1966 -1 x1967 = +0
+1 x1982 -1 x1992 -1 x1993 -1 x1994 = +0
+1 x18c6 -1 x1995 -1 x1996 -1 x1997 = +0
+1 x18c4 -1 x1998 -1 x1999 -1 x199a = +0
+1 x18c2 -1 x199b -1 x199c -1 x199d = +0
+1 x196e -1 x199e -1 x199f -1 x19a0 = +0
+1 x1970 -1 x19a1 -1 x19a2 -1 x19a3 = +0
+1 x1972 -1 x19a4 -1 x19a5 -1 x19a6 = +0
+1 x1974 -1 x19a7 -1 x19a8 -1 x19a9 = +0
+1 x199c +1 x19a8 -1 x19ac = +0
+1 x1999 +1 x19a5 -1 x19af = +0
+1 x1996 +1 x19a2 -1 x19b2 = +0
+1 x1993 +1 x199f -1 x19b5 -1 x1d67 = +0
+1 x199d +1 x19a9 -1 x19b7 = +0
+1 x199a +1 x19a6 -1 x19ba = +0
+1 x1997 +1 x19a3 -1 x19bd = +0
+1 x1994 +1 x19a0 -1 x19c0 -1 x1d68 = +0
+1 x199b +1 x19a7 -1 x19c2 = +0
+1 x1998 +1 x19a4 -1 x19c5 = +0
+1 x1995 +1 x19a1 -1 x19c8 = +0
+1 x1992 +1 x199e -1 x19cb -1 x1d69 = +0
+1 x19b5 -1 x19e2 +1 x1d6c = +0
+1 x19e2 -1 x19e6 -1 x19e7 = +0
+1 x19b2 -1 x19e8 -1 x19e9 = +0
+1 x19af -1 x19ea -1 x19eb = +0
+1 x19ac -1 x19ec -1 x19ed = +0
+1 x19ec +1 x1a14 -1 x1a26 -1 x1a27 -1 x1a28 = +0
+1 x19ea +1 x1a12 -1 x1a29 -1 x1a2a -1 x1a2b = +0
+1 x19e8 +1 x1a10 -1 x1a2c -1 x1a2d -1 x1a2e = +0
+1 x19e6 +1 x1a0e -1 x1a2f -1 x1a30 -1 x1a31 = +0
+1 x19ed +1 x1a15 -1 x1d2c = +0
+1 x19eb +1 x1a13 -1 x1d2d = +0
+1 x19e9 +1 x1a11 -1 x1d2e = +0
+1 x19e7 +1 x1a0f -1 x1d2f = +0
+1 x19c0 -1 x1a0a +1 x1d6e = +0
+1 x1a0a -1 x1a0e -1 x1a0f = +0
+1 x19bd -1 x1a10 -1 x1a11 = +0
+1 x19ba -1 x1a12 -1 x1a13 = +0
+1 x19b7 -1 x1a14 -1 x1a15 = +0
+1 x1a27 +1 x1a2a +1 x1a2d +1 x1a30 -1 x1a34 +1 x1d27 +1 x1db6 = +0
+1 x1a26 +1 x1a29 +1 x1a2c +1 x1a2f -1 x1a36 +1 x1d26 +1 x1db7 = +0
+1 x1a28 +1 x1a2b +1 x1a2e +1 x1a31 -1 x1a38 +1 x1d28 +1 x1db8 = +0
+1 x1a34 -1 x1a41 -1 x1a42 = +0
+1 x1a41 -1 x1cde -1 x1cdf -1 x1ce0 = +0
+1 x1a42 -1 x1a49 -1 x1a4a = +0
+1 x1a4a -1 x1a4d -1 x1a4e = +0
+1 x1a4d -1 x1a50 +1 x1c33 +1 x1cc6 +1 x1d08 +1 x1dee +1 x1e3d = +0
+1 x1a50 -1 x1a51 -1 x1a52 = +0
+1 x1a52 +1 x1a66 -1 x1a6a +0 x1a6b = +0
+1 x1a51 -1 x1a54 +1 x1a65 = +0
+1 x1a54 -1 x1a55 -1 x1a56 = +0
+1 x1a56 -1 x1a6c +0 x1a6d = +0
+1 x1a55 -1 x1a59 -1 x1a5a = +0
+1 x1a5a -1 x1a6e +0 x1a6f = +0
+1 x1a59 -1 x1a5d -1 x1a5e = +0
+1 x1a5e -1 x1a70 +0 x1a71 = +0
+1 x1a5d -1 x1a61 -1 x1a62 = +0
+1 x1a62 -1 x1a72 +0 x1a73 = +0
+1 x1a61 -1 x1a65 -1 x1a66 = +0
+1 x1a4e -1 x1a8f -1 x1a90 = +0
+1 x1a6a -1 x1a91 -1 x1a92 = +0
+1 x1a6c -1 x1a93 -1 x1a94 = +0
+1 x1a6e -1 x1a95 -1 x1a96 = +0
+1 x1a70 -1 x1a97 -1 x1a98 = +0
+1 x1a72 -1 x1a99 -1 x1a9a = +0
+1 x1a90 +1 x1a98 +1 x1a9a -1 x1b52 = +0
+1 x1a8f +1 x1a97 +1 x1a99 -1 x1a9b = +0
+1 x1a49 -1 x1aa4 +1 x1c2f +1 x1cc2 +1 x1d04 +1 x1dea +1 x1e39 = +0
+1 x1a9b -1 x1aa5 -1 x1c3f = +0
+1 x1aa4 -1 x1aa9 -1 x1aaa = +0
+1 x1aa5 -1 x1aab -1 x1aac = +0
+1 x1a95 -1 x1aad -1 x1aae = +0
+1 x1a93 -1 x1aaf -1 x1ab0 = +0
+1 x1a91 -1 x1ab1 -1 x1ab2 = +0
+1 x1aa9 +1 x1aab +1 x1aad +1 x1aaf +1 x1ab1 -1 x1b07 = +0
+1 x1aaa +1 x1aac +1 x1aae +1 x1ab0 +1 x1ab2 -1 x1ab3 = +0
+1 x1ab3 -1 x1ab5 -1 x1ab6 = +0
+1 x1ab5 -1 x1ab8 +1 x1b1d +1 x1b30 +1 x1c45 = +0
+1 x1ab8 -1 x1ab9 -1 x1aba = +0
+1 x1aba +1 x1ace -1 x1ad2 +0 x1ad3 = +0
+1 x1ab9 -1 x1abc +1 x1acd = +0
+1 x1abc -1 x1abd -1 x1abe = +0
+1 x1abe -1 x1ad4 +0 x1ad5 = +0
+1 x1abd -1 x1ac1 -1 x1ac2 = +0
+1 x1ac2 -1 x1ad6 +0 x1ad7 = +0
+1 x1ac1 -1 x1ac5 -1 x1ac6 = +0
+1 x1ac6 -1 x1ad8 +0 x1ad9 = +0
+1 x1ac5 -1 x1ac9 -1 x1aca = +0
+1 x1aca -1 x1ada +0 x1adb = +0
+1 x1ac9 -1 x1acd -1 x1ace = +0
+1 x1ab6 -1 x1af7 -1 x1af8 = +0
+1 x1ad2 -1 x1af9 -1 x1afa = +0
+1 x1ad4 -1 x1afb -1 x1afc = +0
+1 x1ad6 -1 x1afd -1 x1afe = +0
+1 x1ad8 -1 x1aff -1 x1b00 = +0
+1 x1ada -1 x1b01 -1 x1b02 = +0
+1 x1af8 +1 x1b00 +1 x1b02 +1 x1b24 +1 x1b37 -1 x1b3e +0 x1b3f +1 x1c4c
= +0
+1 x1afe -1 x1b40 +0 x1b41 = +0
+1 x1afc -1 x1b42 +0 x1b43 = +0
+1 x1afa -1 x1b44 +0 x1b45 = +0
+1 x1af7 +1 x1aff +1 x1b01 -1 x1b03 = +0
+1 x1b07 -1 x1b0c +1 x1b27 +1 x1b2c +1 x1c41 = +0
+1 x1b03 -1 x1b0d -1 x1b2a = +0
+1 x1b0c -1 x1b11 -1 x1b12 = +0
+1 x1b0d -1 x1b13 -1 x1b14 = +0
+1 x1afd -1 x1b15 -1 x1b16 = +0
+1 x1afb -1 x1b17 -1 x1b18 = +0
+1 x1af9 -1 x1b19 -1 x1b1a = +0
+1 x1b11 +1 x1b13 +1 x1b15 +1 x1b17 +1 x1b19 -1 x1b27 = +0
+1 x1b12 +1 x1b14 +1 x1b16 +1 x1b18 +1 x1b1a -1 x1b1b = +0
+1 x1b1b -1 x1b1d -1 x1b1e = +0
+1 x1b1e -1 x1b23 -1 x1b24 = +0
+1 x1b23 +1 x1b2a -1 x1b2b +1 x1b36 +1 x1c4b = +0
+1 x1b2b -1 x1b2c -1 x1b2d = +0
+1 x1b2d -1 x1b30 -1 x1b31 = +0
+1 x1b31 -1 x1b36 -1 x1b37 = +0
+1 x1b52 -1 x1b62 -1 x1b63 -1 x1b64 = +0
+1 x1a96 -1 x1b65 -1 x1b66 -1 x1b67 = +0
+1 x1a94 -1 x1b68 -1 x1b69 -1 x1b6a = +0
+1 x1a92 -1 x1b6b -1 x1b6c -1 x1b6d = +0
+1 x1b3e -1 x1b6e -1 x1b6f -1 x1b70 = +0
+1 x1b40 -1 x1b71 -1 x1b72 -1 x1b73 = +0
+1 x1b42 -1 x1b74 -1 x1b75 -1 x1b76 = +0
+1 x1b44 -1 x1b77 -1 x1b78 -1 x1b79 = +0
+1 x1b6c +1 x1b78 -1 x1b7c = +0
+1 x1b69 +1 x1b75 -1 x1b7f = +0
+1 x1b66 +1 x1b72 -1 x1b82 = +0
+1 x1b63 +1 x1b6f -1 x1b85 -1 x1c58 = +0
+1 x1b6d +1 x1b79 -1 x1b87 = +0
+1 x1b6a +1 x1b76 -1 x1b8a = +0
+1 x1b67 +1 x1b73 -1 x1b8d = +0
+1 x1b64 +1 x1b70 -1 x1b90 -1 x1c59 = +0
+1 x1b6b +1 x1b77 -1 x1b92 = +0
+1 x1b68 +1 x1b74 -1 x1b95 = +0
+1 x1b65 +1 x1b71 -1 x1b98 = +0
+1 x1b62 +1 x1b6e -1 x1b9b -1 x1c5a = +0
+1 x1b85 -1 x1bc6 +1 x1c5d = +0
+1 x1b90 -1 x1bca +1 x1c5f = +0
+1 x1bc6 -1 x1bce -1 x1bcf = +0
+1 x1b82 -1 x1bd0 -1 x1bd1 = +0
+1 x1b7f -1 x1bd2 -1 x1bd3 = +0
+1 x1b7c -1 x1bd4 -1 x1bd5 = +0
+1 x1bca -1 x1bd6 -1 x1bd7 = +0
+1 x1b8d -1 x1bd8 -1 x1bd9 = +0
+1 x1b8a -1 x1bda -1 x1bdb = +0
+1 x1b87 -1 x1bdc -1 x1bdd = +0
+1 x1bd4 +1 x1bdc -1 x1be6 -1 x1be7 -1 x1be8 = +0
+1 x1bd2 +1 x1bda -1 x1be9 -1 x1bea -1 x1beb = +0
+1 x1bd0 +1 x1bd8 -1 x1bec -1 x1bed -1 x1bee = +0
+1 x1bce +1 x1bd6 -1 x1bef -1 x1bf0 -1 x1bf1 = +0
+1 x1bd5 +1 x1bdd -1 x1bde = +0
+1 x1bd3 +1 x1bdb -1 x1bdf = +0
+1 x1bd1 +1 x1bd9 -1 x1be0 = +0
+1 x1bcf +1 x1bd7 -1 x1be1 = +0
+1 x1bde +1 x1c92 -1 x1d30 = +0
+1 x1bdf +1 x1c90 -1 x1d31 = +0
+1 x1be0 +1 x1c8e -1 x1d32 = +0
+1 x1be1 +1 x1c8c -1 x1d33 = +0
+1 x1be7 +1 x1bea +1 x1bed +1 x1bf0 -1 x1bf4 +1 x1cab +1 x1cf1 = +0
+1 x1be6 +1 x1be9 +1 x1bec +1 x1bef -1 x1bf6 +1 x1cac +1 x1cf0 = +0
+1 x1be8 +1 x1beb +1 x1bee +1 x1bf1 -1 x1bf8 +1 x1cad +1 x1cf2 = +0
+1 x1bf4 -1 x1c01 -1 x1c02 = +0
+1 x1c01 +1 x1c0b -1 x1c11 -1 x1c12 -1 x1c13 = +0
+1 x1c02 +1 x1c0c -1 x1c2b = +0
+1 x1bf6 -1 x1c0b -1 x1c0c = +0
+1 x1c12 -1 x1c16 +1 x1c26 +1 x1cb9 = +0
+1 x1c11 -1 x1c18 +1 x1c25 +1 x1cb8 = +0
+1 x1c13 -1 x1c1a +1 x1c27 +1 x1cba = +0
+1 x1c18 -1 x1c25 -1 x1c26 -1 x1c27 = +0
+1 x1c2b -1 x1c2f -1 x1c30 = +0
+1 x1c30 -1 x1c33 -1 x1c34 = +0
+1 x1c34 -1 x1c39 -1 x1c3a = +0
+1 x1c39 +1 x1c3f -1 x1c40 +1 x1ccc +1 x1d0e +1 x1df4 +1 x1e43 = +0
+1 x1c40 -1 x1c41 -1 x1c42 = +0
+1 x1c42 -1 x1c45 -1 x1c46 = +0
+1 x1c46 -1 x1c4b -1 x1c4c = +0
+1 x1c3a -1 x1c55 -1 x1c56 -1 x1c57 = +0
+1 x1c56 +1 x1c58 -1 x1c5d +1 x1cd6 +1 x1d18 +1 x1dfe +1 x1e4d = +0
+1 x1c57 +1 x1c59 -1 x1c5f +1 x1cd7 +1 x1d19 +1 x1dff +1 x1e4e = +0
+1 x1c55 +1 x1c5a -1 x1c61 +1 x1cd5 +1 x1d17 +1 x1dfd +1 x1e4c = +0
+1 x1b9b +1 x1c61 -1 x1c7e = +0
+1 x1c7e -1 x1c8b -1 x1c8c = +0
+1 x1b98 -1 x1c8d -1 x1c8e = +0
+1 x1b95 -1 x1c8f -1 x1c90 = +0
+1 x1b92 -1 x1c91 -1 x1c92 = +0
+1 x1c91 -1 x1c9f -1 x1ca0 -1 x1ca1 = +0
+1 x1c8f -1 x1ca2 -1 x1ca3 -1 x1ca4 = +0
+1 x1c8d -1 x1ca5 -1 x1ca6 -1 x1ca7 = +0
+1 x1c8b -1 x1ca8 -1 x1ca9 -1 x1caa = +0
+1 x1ca0 +1 x1ca3 +1 x1ca6 +1 x1ca9 -1 x1cab = +0
+1 x1c9f +1 x1ca2 +1 x1ca5 +1 x1ca8 -1 x1cac = +0
+1 x1ca1 +1 x1ca4 +1 x1ca7 +1 x1caa -1 x1cad = +0
+1 x1bf8 -1 x1cb4 -1 x1cb5 = +0
+1 x1cb4 -1 x1cb8 -1 x1cb9 -1 x1cba = +0
+1 x1cb5 -1 x1cc2 -1 x1cc3 = +0
+1 x1cc3 -1 x1cc6 -1 x1cc7 = +0
+1 x1cc7 -1 x1ccc -1 x1ccd = +0
+1 x1ccd -1 x1cd5 -1 x1cd6 -1 x1cd7 = +0
+1 x1c1a -1 x1ce1 -1 x1ce2 -1 x1ce3 = +0
+1 x1cdf +1 x1ce2 -1 x1ce6 +1 x1d1e +1 x1e04 = +0
+1 x1cde +1 x1ce1 -1 x1ce8 +1 x1d1d +1 x1e03 = +0
+1 x1ce0 +1 x1ce3 -1 x1cea +1 x1d1f +1 x1e05 = +0
+1 x1ce8 -1 x1cf0 -1 x1cf1 -1 x1cf2 = +0
+1 x1a36 -1 x1cfc -1 x1cfd = +0
+1 x1cfc -1 x1d1d -1 x1d1e -1 x1d1f = +0
+1 x1cfd -1 x1d04 -1 x1d05 = +0
+1 x1d05 -1 x1d08 -1 x1d09 = +0
+1 x1d09 -1 x1d0e -1 x1d0f = +0
+1 x1d0f -1 x1d17 -1 x1d18 -1 x1d19 = +0
+1 x1cea -1 x1d26 -1 x1d27 -1 x1d28 = +0
+1 x1d2c +1 x1d2d +1 x1d2e +1 x1d2f +1 x1d30 +1 x1d31 +1 x1d32 +1 x1d33
-1 x1d3c = +0
+1 x1d3c -1 x1d3e -1 x1d3f = +0
+1 x1d3f -1 x1d42 -1 x1d43 = +0
+1 x1d43 -1 x1d48 -1 x1d49 = +0
+1 x1d48 +1 x1d4e -1 x1d4f +1 x1dcd = +0
+1 x1d4f -1 x1d50 -1 x1d51 = +0
+1 x1d51 -1 x1d54 -1 x1d55 = +0
+1 x1d55 -1 x1d5a -1 x1d5b = +0
+1 x1d49 -1 x1d64 -1 x1d65 -1 x1d66 = +0
+1 x1d65 +1 x1d67 -1 x1d6c +1 x1dd7 = +0
+1 x1d66 +1 x1d68 -1 x1d6e +1 x1dd8 = +0
+1 x1d64 +1 x1d69 -1 x1d70 +1 x1dd6 = +0
+1 x19cb +1 x1d70 -1 x1d8d = +0
+1 x1d8d -1 x1d9a -1 x1d9b = +0
+1 x19c8 -1 x1d9c -1 x1d9d = +0
+1 x19c5 -1 x1d9e -1 x1d9f = +0
+1 x19c2 -1 x1da0 -1 x1da1 = +0
+1 x1da0 -1 x1daa -1 x1dab -1 x1dac = +0
+1 x1d9e -1 x1dad -1 x1dae -1 x1daf = +0
+1 x1d9c -1 x1db0 -1 x1db1 -1 x1db2 = +0
+1 x1d9a -1 x1db3 -1 x1db4 -1 x1db5 = +0
+1 x1dab +1 x1dae +1 x1db1 +1 x1db4 -1 x1db6 = +0
+1 x1daa +1 x1dad +1 x1db0 +1 x1db3 -1 x1db7 = +0
+1 x1dac +1 x1daf +1 x1db2 +1 x1db5 -1 x1db8 = +0
+1 x1d9b +1 x1d9d +1 x1d9f +1 x1da1 -1 x1dc1 = +0
+1 x1dc1 -1 x1dc3 -1 x1dc4 = +0
+1 x1dc4 -1 x1dc7 -1 x1dc8 = +0
+1 x1dc8 -1 x1dcd -1 x1dce = +0
+1 x1dce -1 x1dd6 -1 x1dd7 -1 x1dd8 = +0
+1 x1a38 -1 x1de2 -1 x1de3 = +0
+1 x1de2 -1 x1e03 -1 x1e04 -1 x1e05 = +0
+1 x1de3 -1 x1dea -1 x1deb = +0
+1 x1deb -1 x1dee -1 x1def = +0
+1 x1def -1 x1df4 -1 x1df5 = +0
+1 x1df5 -1 x1dfd -1 x1dfe -1 x1dff = +0
+1 x185f +1 x1861 -1 x1e12 = +0
+1 x1859 +1 x185b +1 x185d -1 x1e13 = +0
+1 x1ce6 -1 x1e21 -1 x1e22 = +0
+1 x1e13 -1 x1e23 -1 x1e24 = +0
+1 x1e12 -1 x1e25 -1 x1e26 = +0
+1 x1e23 +1 x1e25 -1 x1e2d = +0
+1 x1e22 +1 x1e24 +1 x1e26 -1 x1e37 = +0
+1 x1e37 -1 x1e39 -1 x1e3a = +0
+1 x1e3a -1 x1e3d -1 x1e3e = +0
+1 x1e3e -1 x1e43 -1 x1e44 = +0
+1 x1e44 -1 x1e4c -1 x1e4d -1 x1e4e = +0
+1 x1e21 +1 x1e2d -1 x1e59 = +0
+1 x1c16 +1 x1e59 -1 x1e5e = +0
-1 x16be +1 x1716 +1 x171a +1 x171c +1 x171e +1 x1811 +1 x1813 +1 x1815
+1 x1817 +1 x1825 = +0
-1 x1877 +1 x18c2 +1 x18c4 +1 x18c6 +1 x196e +1 x1970 +1 x1972 +1 x1974
+1 x1982 -1 x1d3c +1 x1d49 -1 x1dc1 +1 x1dce = +0
-1 x1a42 +1 x1a92 +1 x1a94 +1 x1a96 +1 x1b3e +1 x1b40 +1 x1b42 +1 x1b44
+1 x1b52 -1 x1c2b +1 x1c3a -1 x1cb5 +1 x1ccd -1 x1cfd +1 x1d0f -1 x1de3
+1 x1df5 -1 x1e37 +1 x1e44 = +0
-1 x16be +1 x1716 +1 x1840 +1 x1841 +1 x1842 +1 x1843 = +0
-1 x185a -1 x185c -1 x185e -1 x1860 -1 x1862 +1 x19c2 +1 x19c5 +1 x19c8
+1 x19cb +1 x1d70 = +0
+1 x19b7 +1 x19ba +1 x19bd +1 x19c0 -1 x19e7 -1 x19e9 -1 x19eb -1 x19ed
-1 x1a0f -1 x1a11 -1 x1a13 -1 x1a15 +1 x1d6e -1 x1d9b -1 x1d9d -1 x1d9f
-1 x1da1 = +0
-1 x1a42 +1 x1b92 +1 x1b95 +1 x1b98 +1 x1b9b +1 x1c61 -1 x1cfd -1 x1de3
= +0
+1 x19ac +1 x19af +1 x19b2 +1 x19b5 -1 x1bde -1 x1bdf -1 x1be0 -1 x1be1
-1 x1c8c -1 x1c8e -1 x1c90 -1 x1c92 +1 x1d6c = +0
+1 x1b87 +1 x1b8a +1 x1b8d +1 x1b90 -1 x1c02 -1 x1c0c +1 x1c5f -1 x1cb5
= +0
+1 x1b7c +1 x1b7f +1 x1b82 +1 x1b85 +1 x1c5d -1 x1e22 -1 x1e24 -1 x1e26
= +0
-1 x1716 -1 x1840 -1 x1841 -1 x1842 -1 x1843 +1 x1ce6 +1 x1e12 +1 x1e13
= +0
-1 x19c2 -1 x19c5 -1 x19c8 +1 x1a38 -1 x1d8d = +0
-1 x19b7 -1 x19ba -1 x19bd -1 x19c0 +1 x1a36 -1 x1d6e = +0
-1 x1b92 -1 x1b95 -1 x1b98 +1 x1bf8 -1 x1c7e = +0
-1 x19ac -1 x19af -1 x19b2 -1 x19b5 +1 x1a34 -1 x1d6c = +0
-1 x1b87 -1 x1b8a -1 x1b8d -1 x1b90 +1 x1bf6 -1 x1c5f = +0
-1 x1b7c -1 x1b7f -1 x1b82 -1 x1b85 +1 x1bf4 -1 x1c5d = +0
+1 x1c16 -1 x1ce6 -1 x1e12 -1 x1e13 +1 x1e21 +1 x1e2d = +0
-1 x1a38 +1 x1ce6 = +0
-1 x1a36 +1 x1cea = +0
-1 x1bf8 +1 x1c1a = +0
-1 x1a34 +1 x1ce8 = +0
-1 x1bf6 +1 x1c18 = +0
-1 x1bf4 +1 x1c16 = +0
-1 x16be +1 x1c16 +1 x1e59 = +0
-1 x1e5e <= +0
-1 x165f +1 x16be = +0
-1 x16d3 +1 x16f0 +1 x16f2 +1 x16f4 +1 x16f6 +1 x16f8 = +0
-1 x16d7 -1 x16db -1 x16df -1 x16e3 -1 x16e7 -1 x16eb +1 x16f1 +1 x16f3
+1 x16f5 +1 x16f7 +1 x16f9 = +0
-1 x1746 +1 x1761 +1 x1763 +1 x1765 +1 x1767 +1 x1769 -1 x17ba -1 x17dd
-1 x17f1 -1 x1803 = +0
-1 x1748 -1 x174c -1 x1750 -1 x1754 -1 x1758 -1 x175c +1 x1762 +1 x1764
+1 x1766 +1 x1768 +1 x176a = +0
-1 x187d +1 x189a +1 x189c +1 x189e +1 x18a0 +1 x18a2 -1 x1d42 -1 x1dc7
= +0
-1 x1881 -1 x1885 -1 x1889 -1 x188d -1 x1891 -1 x1895 +1 x189b +1 x189d
+1 x189f +1 x18a1 +1 x18a3 = +0
-1 x18e5 +1 x1902 +1 x1904 +1 x1906 +1 x1908 +1 x190a -1 x194d -1 x1960
-1 x1d54 = +0
-1 x18e9 -1 x18ed -1 x18f1 -1 x18f5 -1 x18f9 -1 x18fd +1 x1903 +1 x1905
+1 x1907 +1 x1909 +1 x190b = +0
-1 x1a4d +1 x1a6a +1 x1a6c +1 x1a6e +1 x1a70 +1 x1a72 -1 x1c33 -1 x1cc6
-1 x1d08 -1 x1dee -1 x1e3d = +0
-1 x1a51 -1 x1a55 -1 x1a59 -1 x1a5d -1 x1a61 -1 x1a65 +1 x1a6b +1 x1a6d
+1 x1a6f +1 x1a71 +1 x1a73 = +0
-1 x1ab5 +1 x1ad2 +1 x1ad4 +1 x1ad6 +1 x1ad8 +1 x1ada -1 x1b1d -1 x1b30
-1 x1c45 = +0
-1 x1ab9 -1 x1abd -1 x1ac1 -1 x1ac5 -1 x1ac9 -1 x1acd +1 x1ad3 +1 x1ad5
+1 x1ad7 +1 x1ad9 +1 x1adb = +0
-1 x16d0 +1 x16d4 +1 x16f0 +1 x16f2 +1 x16f4 +1 x16f6 +1 x16f8 = +0
-1 x1733 -1 x173f +1 x1761 +1 x1763 +1 x1765 +1 x1767 +1 x1769 +1 x177a
-1 x17a3 -1 x17a5 -1 x17b0 +1 x17bc -1 x17cc -1 x17ce -1 x17d0 +1 x17df
-1 x17ee +1 x17f2 -1 x1800 +1 x1804 = +0
-1 x187a +1 x187e +1 x189a +1 x189c +1 x189e +1 x18a0 +1 x18a2 -1 x1d3f
+1 x1d43 -1 x1dc4 +1 x1dc8 = +0
-1 x18e3 +1 x18e6 +1 x1902 +1 x1904 +1 x1906 +1 x1908 +1 x190a -1 x194b
+1 x194e -1 x195d +1 x1961 -1 x1d51 +1 x1d55 = +0
-1 x1a4a +1 x1a4e +1 x1a6a +1 x1a6c +1 x1a6e +1 x1a70 +1 x1a72 -1 x1c30
+1 x1c34 -1 x1cc3 +1 x1cc7 -1 x1d05 +1 x1d09 -1 x1deb +1 x1def -1 x1e3a
+1 x1e3e = +0
-1 x1ab3 +1 x1ab6 +1 x1ad2 +1 x1ad4 +1 x1ad6 +1 x1ad8 +1 x1ada -1 x1b1b
+1 x1b1e -1 x1b2d +1 x1b31 -1 x1c42 +1 x1c46 = +0
-1 x16cf -1 x1715 -1 x1719 -1 x171b -1 x171d -1 x1721 +1 x1811 +1 x1813
+1 x1815 +1 x1817 = +0
-1 x1732 -1 x1788 -1 x178a -1 x178c -1 x1792 -1 x1797 -1 x17a2 -1 x17a4
-1 x17be -1 x17c4 -1 x17cb -1 x17cd -1 x17cf -1 x17e1 -1 x17ed -1 x17f7
-1 x17ff -1 x1809 +1 x1812 +1 x1814 +1 x1816 +1 x1818 = +0
-1 x1879 -1 x18c1 -1 x18c3 -1 x18c5 -1 x18cb +1 x196e +1 x1970 +1 x1972
+1 x1974 -1 x1d3e -1 x1d48 -1 x1dc3 -1 x1dcd = +0
-1 x1929 -1 x192b -1 x192d -1 x1933 -1 x1937 -1 x1953 -1 x1957 -1 x195c
-1 x1966 +1 x196f +1 x1971 +1 x1973 +1 x1975 -1 x1d50 -1 x1d5a = +0
-1 x1a49 -1 x1a91 -1 x1a93 -1 x1a95 -1 x1a9b +1 x1b3e +1 x1b40 +1 x1b42
+1 x1b44 -1 x1c2f -1 x1c39 -1 x1cc2 -1 x1ccc -1 x1d04 -1 x1d0e -1 x1dea
-1 x1df4 -1 x1e39 -1 x1e43 = +0
-1 x1af9 -1 x1afb -1 x1afd -1 x1b03 -1 x1b07 -1 x1b23 -1 x1b27 -1 x1b2c
-1 x1b36 +1 x1b3f +1 x1b41 +1 x1b43 +1 x1b45 -1 x1c41 -1 x1c4b = +0
-1 x1661 -1 x1662 +1 x16be = +0
-1 x1668 -1 x1669 -1 x166f -1 x1670 -1 x1677 -1 x1678 -1 x167f -1 x1680
-1 x1687 -1 x1688 -1 x168f -1 x1690 -1 x1697 -1 x1698 -1 x169f -1 x16a0
-1 x16a7 -1 x16a8 -1 x16af -1 x16b0 -1 x16b7 -1 x16b8 +1 x16bf = +0
-99 x16be +1 x1716 +1 x1840 +1 x1841 +1 x1842 +1 x1843 +1 x19ac +1 x19af
+1 x19b2 +1 x19b5 +1 x19b7 +1 x19ba +1 x19bd +1 x19c0 +1 x19c2 +1 x19c5
+1 x19c8 +1 x1a34 +1 x1a36 +1 x1a38 +1 x1b7c +1 x1b7f +1 x1b82 +1 x1b85
+1 x1b87 +1 x1b8a +1 x1b8d +1 x1b90 +1 x1b92 +1 x1b95 +1 x1b98 +1 x1bf4
+1 x1bf6 +1 x1bf8 +1 x1c5d +1 x1c5f +1 x1c7e +1 x1ce6 +1 x1d6c +1 x1d6e
+1 x1d8d +1 x1e12 +1 x1e13 <= +0
-99 x16d0 +1 x16d3 +1 x16d7 +1 x16db +1 x16df +1 x16e3 +1 x16e7 +1 x16eb
<= +0
-98 x16d3 +1 x16d7 +1 x16db +1 x16df +1 x16e3 +1 x16e7 +1 x16eb <= +0
-98 x16d0 +1 x16d7 +1 x16db +1 x16df +1 x16e3 +1 x16e7 +1 x16eb <= +0
-99 x1733 -99 x173f +1 x1746 +1 x1748 +1 x174c +1 x1750 +1 x1754 +1 x1758
+1 x175c -99 x17a3 -99 x17a5 -99 x17b0 +1 x17ba -99 x17cc -99 x17ce -99 x17d0
+1 x17dd -99 x17ee +1 x17f1 -99 x1800 +1 x1803 <= +0
-98 x1746 +1 x1748 +1 x174c +1 x1750 +1 x1754 +1 x1758 +1 x175c -98 x17ba
-98 x17dd -98 x17f1 -98 x1803 <= +0
-98 x1733 -98 x173f +1 x1748 +1 x174c +1 x1750 +1 x1754 +1 x1758 +1 x175c
-98 x17a3 -98 x17a5 -98 x17b0 -98 x17cc -98 x17ce -98 x17d0 -98 x17ee -98 x1800
<= +0
-99 x187a +1 x187d +1 x1881 +1 x1885 +1 x1889 +1 x188d +1 x1891 +1 x1895
-99 x1d3f +1 x1d42 -99 x1dc4 +1 x1dc7 <= +0
-98 x187d +1 x1881 +1 x1885 +1 x1889 +1 x188d +1 x1891 +1 x1895 -98 x1d42
-98 x1dc7 <= +0
-98 x187a +1 x1881 +1 x1885 +1 x1889 +1 x188d +1 x1891 +1 x1895 -98 x1d3f
-98 x1dc4 <= +0
-99 x18e3 +1 x18e5 +1 x18e9 +1 x18ed +1 x18f1 +1 x18f5 +1 x18f9 +1 x18fd
-99 x194b +1 x194d -99 x195d +1 x1960 -99 x1d51 +1 x1d54 <= +0
-98 x18e5 +1 x18e9 +1 x18ed +1 x18f1 +1 x18f5 +1 x18f9 +1 x18fd -98 x194d
-98 x1960 -98 x1d54 <= +0
-98 x18e3 +1 x18e9 +1 x18ed +1 x18f1 +1 x18f5 +1 x18f9 +1 x18fd -98 x194b
-98 x195d -98 x1d51 <= +0
-99 x1a4a +1 x1a4d +1 x1a51 +1 x1a55 +1 x1a59 +1 x1a5d +1 x1a61 +1 x1a65
-99 x1c30 +1 x1c33 -99 x1cc3 +1 x1cc6 -99 x1d05 +1 x1d08 -99 x1deb +1 x1dee
-99 x1e3a +1 x1e3d <= +0
-98 x1a4d +1 x1a51 +1 x1a55 +1 x1a59 +1 x1a5d +1 x1a61 +1 x1a65 -98 x1c33
-98 x1cc6 -98 x1d08 -98 x1dee -98 x1e3d <= +0
-98 x1a4a +1 x1a51 +1 x1a55 +1 x1a59 +1 x1a5d +1 x1a61 +1 x1a65 -98 x1c30
-98 x1cc3 -98 x1d05 -98 x1deb -98 x1e3a <= +0
-99 x1ab3 +1 x1ab5 +1 x1ab9 +1 x1abd +1 x1ac1 +1 x1ac5 +1 x1ac9 +1 x1acd
-99 x1b1b +1 x1b1d -99 x1b2d +1 x1b30 -99 x1c42 +1 x1c45 <= +0
-98 x1ab5 +1 x1ab9 +1 x1abd +1 x1ac1 +1 x1ac5 +1 x1ac9 +1 x1acd -98 x1b1d
-98 x1b30 -98 x1c45 <= +0
-98 x1ab3 +1 x1ab9 +1 x1abd +1 x1ac1 +1 x1ac5 +1 x1ac9 +1 x1acd -98 x1b1b
-98 x1b2d -98 x1c42 <= +0
-100 x16be +1 x16cf +1 x1715 +1 x1719 +1 x171b +1 x171d +1 x1721 +1 x1732
+1 x1788 +1 x178a +1 x178c +1 x1792 +1 x1797 +1 x17a2 +1 x17a4 +1 x17be
+1 x17c4 +1 x17cb +1 x17cd +1 x17cf +1 x17e1 +1 x17ed +1 x17f7 +1 x17ff
+1 x1809 <= +0
-99 x16cf -99 x1715 -99 x1719 -99 x171b -99 x171d -99 x1721 +1 x1732 +1 x1788
+1 x178a +1 x178c +1 x1792 +1 x1797 +1 x17a2 +1 x17a4 +1 x17be +1 x17c4
+1 x17cb +1 x17cd +1 x17cf +1 x17e1 +1 x17ed +1 x17f7 +1 x17ff +1 x1809
<= +0
-99 x16be +1 x1732 +1 x1788 +1 x178a +1 x178c +1 x1792 +1 x1797 +1 x17a2
+1 x17a4 +1 x17be +1 x17c4 +1 x17cb +1 x17cd +1 x17cf +1 x17e1 +1 x17ed
+1 x17f7 +1 x17ff +1 x1809 <= +0
-100 x1877 +1 x1879 +1 x18c1 +1 x18c3 +1 x18c5 +1 x18cb +1 x1929 +1 x192b
+1 x192d +1 x1933 +1 x1937 +1 x1953 +1 x1957 +1 x195c +1 x1966 -100 x1d3c
+1 x1d3e +1 x1d48 +1 x1d50 +1 x1d5a -100 x1dc1 +1 x1dc3 +1 x1dcd <= +0
-99 x1879 -99 x18c1 -99 x18c3 -99 x18c5 -99 x18cb +1 x1929 +1 x192b +1 x192d
+1 x1933 +1 x1937 +1 x1953 +1 x1957 +1 x195c +1 x1966 -99 x1d3e -99 x1d48
+1 x1d50 +1 x1d5a -99 x1dc3 -99 x1dcd <= +0
-99 x1877 +1 x1929 +1 x192b +1 x192d +1 x1933 +1 x1937 +1 x1953 +1 x1957
+1 x195c +1 x1966 -99 x1d3c +1 x1d50 +1 x1d5a -99 x1dc1 <= +0
-100 x1a42 +1 x1a49 +1 x1a91 +1 x1a93 +1 x1a95 +1 x1a9b +1 x1af9 +1 x1afb
+1 x1afd +1 x1b03 +1 x1b07 +1 x1b23 +1 x1b27 +1 x1b2c +1 x1b36 -100 x1c2b
+1 x1c2f +1 x1c39 +1 x1c41 +1 x1c4b -100 x1cb5 +1 x1cc2 +1 x1ccc -100 x1cfd
+1 x1d04 +1 x1d0e -100 x1de3 +1 x1dea +1 x1df4 -100 x1e37 +1 x1e39 +1 x1e43
<= +0
-99 x1a49 -99 x1a91 -99 x1a93 -99 x1a95 -99 x1a9b +1 x1af9 +1 x1afb +1 x1afd
+1 x1b03 +1 x1b07 +1 x1b23 +1 x1b27 +1 x1b2c +1 x1b36 -99 x1c2f -99 x1c39
+1 x1c41 +1 x1c4b -99 x1cc2 -99 x1ccc -99 x1d04 -99 x1d0e -99 x1dea -99 x1df4
-99 x1e39 -99 x1e43 <= +0
-99 x1a42 +1 x1af9 +1 x1afb +1 x1afd +1 x1b03 +1 x1b07 +1 x1b23 +1 x1b27
+1 x1b2c +1 x1b36 -99 x1c2b +1 x1c41 +1 x1c4b -99 x1cb5 -99 x1cfd -99 x1de3
-99 x1e37 <= +0
-99 x165f +1 x1661 +1 x1662 +1 x1668 +1 x1669 +1 x166f +1 x1670 +1 x1677
+1 x1678 +1 x167f +1 x1680 +1 x1687 +1 x1688 +1 x168f +1 x1690 +1 x1697
+1 x1698 +1 x169f +1 x16a0 +1 x16a7 +1 x16a8 +1 x16af +1 x16b0 +1 x16b7
+1 x16b8 >= +0
-99 x165f +1 x1661 +1 x1662 +1 x1668 +1 x1669 +1 x166f +1 x1670 +1 x1677
+1 x1678 +1 x167f +1 x1680 +1 x1687 +1 x1688 +1 x168f +1 x1690 +1 x1697
+1 x1698 +1 x169f +1 x16a0 +1 x16a7 +1 x16a8 +1 x16af +1 x16b0 +1 x16b7
+1 x16b8 <= +0
-98 x1661 -98 x1662 +1 x1668 +1 x1669 +1 x166f +1 x1670 +1 x1677 +1 x1678
+1 x167f +1 x1680 +1 x1687 +1 x1688 +1 x168f +1 x1690 +1 x1697 +1 x1698
+1 x169f +1 x16a0 +1 x16a7 +1 x16a8 +1 x16af +1 x16b0 +1 x16b7 +1 x16b8
<= +0
-98 x165f +1 x1668 +1 x1669 +1 x166f +1 x1670 +1 x1677 +1 x1678 +1 x167f
+1 x1680 +1 x1687 +1 x1688 +1 x168f +1 x1690 +1 x1697 +1 x1698 +1 x169f
+1 x16a0 +1 x16a7 +1 x16a8 +1 x16af +1 x16b0 +1 x16b7 +1 x16b8 <= +0
general
z
o
x1645
x1646
x1647
x1648
x1649
x164a
x164b
x164c
x164d
x164e
x164f
x1650
x1651
x165f
x1661
x1662
x1668
x1669
x16be
x16bf
x166f
x1670
x1677
x1678
x167f
x1680
x1687
x1688
x168f
x1690
x1697
x1698
x169f
x16a0
x16a7
x16a8
x16af
x16b0
x16b4
x16b5
x16b7
x16b8
x16cf
x16d0
x16d3
x16d4
x16d7
x16d8
x16f0
x16f1
x16da
x16db
x16dc
x16f2
x16f3
x16df
x16e0
x16f4
x16f5
x16e3
x16e4
x16f6
x16f7
x16e7
x16e8
x16f8
x16f9
x16eb
x16ec
x1715
x1716
x1717
x1718
x1719
x171a
x171b
x171c
x171d
x171e
x171f
x1720
x1825
x1721
x1732
x1733
x1734
x1735
x1736
x1737
x1738
x1739
x173a
x173b
x173c
x173d
x1797
x173f
x1742
x1743
x1744
x1745
x1746
x177a
x1747
x1748
x1749
x1761
x1762
x174b
x174c
x174d
x1763
x1764
x1750
x1751
x1765
x1766
x1754
x1755
x1767
x1768
x1758
x1759
x1769
x176a
x175c
x175d
x1786
x1787
x1788
x1789
x178a
x178b
x178c
x178d
x178e
x178f
x1790
x1791
x1811
x1812
x1813
x1814
x1815
x1816
x1817
x1818
x1792
x179d
x179e
x17c7
x17a2
x17a3
x17a4
x17a5
x17a6
x17a7
x17a8
x17a9
x17aa
x17ab
x17ac
x17ad
x17c4
x17b0
x17b4
x17b5
x17b6
x17b7
x17b8
x17b9
x17ba
x17bc
x17be
x17bf
x17c9
x17ca
x17cb
x17cc
x17cd
x17ce
x17cf
x17d0
x17d7
x17d8
x17d9
x17da
x17db
x17dc
x17dd
x17df
x17e1
x17e2
x17ed
x17ee
x17f1
x17f2
x17f7
x17f8
x17ff
x1800
x1803
x1804
x1809
x180a
x1840
x1841
x1842
x1843
x1859
x185a
x185b
x185c
x185d
x185e
x185f
x1860
x1861
x1862
x1877
x1879
x187a
x187d
x187e
x1880
x1881
x1882
x189a
x189b
x1884
x1885
x1886
x189c
x189d
x1889
x188a
x189e
x189f
x188d
x188e
x18a0
x18a1
x1891
x1892
x18a2
x18a3
x1895
x1896
x18bf
x18c0
x18c1
x18c2
x18c3
x18c4
x18c5
x18c6
x18c7
x18c8
x18c9
x18ca
x1982
x18cb
x18d4
x18d5
x1d4e
x18d9
x18da
x18db
x18dc
x18dd
x18de
x18df
x18e0
x18e1
x18e2
x1937
x18e3
x18e5
x18e6
x18e8
x18e9
x18ea
x1902
x1903
x18ec
x18ed
x18ee
x1904
x1905
x18f1
x18f2
x1906
x1907
x18f5
x18f6
x1908
x1909
x18f9
x18fa
x190a
x190b
x18fd
x18fe
x1927
x1928
x1929
x192a
x192b
x192c
x192d
x192e
x192f
x1930
x1931
x1932
x196e
x196f
x1970
x1971
x1972
x1973
x1974
x1975
x1933
x193c
x193d
x195a
x1941
x1942
x1943
x1944
x1945
x1946
x1947
x1948
x1949
x194a
x1957
x194b
x194d
x194e
x1953
x1954
x195b
x195c
x195d
x1960
x1961
x1966
x1967
x1992
x1993
x1994
x1995
x1996
x1997
x1998
x1999
x199a
x199b
x199c
x199d
x199e
x199f
x19a0
x19a1
x19a2
x19a3
x19a4
x19a5
x19a6
x19a7
x19a8
x19a9
x19ac
x19af
x19b2
x1d67
x19b5
x19b7
x19ba
x19bd
x1d68
x19c0
x19c2
x19c5
x19c8
x19cb
x1d69
x19e2
x19e6
x19e7
x19e8
x19e9
x19ea
x19eb
x19ec
x19ed
x1a26
x1a27
x1a28
x1a29
x1a2a
x1a2b
x1a2c
x1a2d
x1a2e
x1a2f
x1a30
x1a31
x1d2c
x1d2d
x1d2e
x1d2f
x1a0a
x1a0e
x1a0f
x1a10
x1a11
x1a12
x1a13
x1a14
x1a15
x1a34
x1a36
x1a38
x1a41
x1a42
x1cde
x1cdf
x1ce0
x1a49
x1a4a
x1a4d
x1a4e
x1a50
x1a51
x1a52
x1a6a
x1a6b
x1a54
x1a55
x1a56
x1a6c
x1a6d
x1a59
x1a5a
x1a6e
x1a6f
x1a5d
x1a5e
x1a70
x1a71
x1a61
x1a62
x1a72
x1a73
x1a65
x1a66
x1a8f
x1a90
x1a91
x1a92
x1a93
x1a94
x1a95
x1a96
x1a97
x1a98
x1a99
x1a9a
x1b52
x1a9b
x1aa4
x1aa5
x1c3f
x1aa9
x1aaa
x1aab
x1aac
x1aad
x1aae
x1aaf
x1ab0
x1ab1
x1ab2
x1b07
x1ab3
x1ab5
x1ab6
x1ab8
x1ab9
x1aba
x1ad2
x1ad3
x1abc
x1abd
x1abe
x1ad4
x1ad5
x1ac1
x1ac2
x1ad6
x1ad7
x1ac5
x1ac6
x1ad8
x1ad9
x1ac9
x1aca
x1ada
x1adb
x1acd
x1ace
x1af7
x1af8
x1af9
x1afa
x1afb
x1afc
x1afd
x1afe
x1aff
x1b00
x1b01
x1b02
x1b3e
x1b3f
x1b40
x1b41
x1b42
x1b43
x1b44
x1b45
x1b03
x1b0c
x1b0d
x1b2a
x1b11
x1b12
x1b13
x1b14
x1b15
x1b16
x1b17
x1b18
x1b19
x1b1a
x1b27
x1b1b
x1b1d
x1b1e
x1b23
x1b24
x1b2b
x1b2c
x1b2d
x1b30
x1b31
x1b36
x1b37
x1b62
x1b63
x1b64
x1b65
x1b66
x1b67
x1b68
x1b69
x1b6a
x1b6b
x1b6c
x1b6d
x1b6e
x1b6f
x1b70
x1b71
x1b72
x1b73
x1b74
x1b75
x1b76
x1b77
x1b78
x1b79
x1b7c
x1b7f
x1b82
x1c58
x1b85
x1b87
x1b8a
x1b8d
x1c59
x1b90
x1b92
x1b95
x1b98
x1b9b
x1c5a
x1bc6
x1bca
x1bce
x1bcf
x1bd0
x1bd1
x1bd2
x1bd3
x1bd4
x1bd5
x1bd6
x1bd7
x1bd8
x1bd9
x1bda
x1bdb
x1bdc
x1bdd
x1be6
x1be7
x1be8
x1be9
x1bea
x1beb
x1bec
x1bed
x1bee
x1bef
x1bf0
x1bf1
x1bde
x1bdf
x1be0
x1be1
x1d30
x1d31
x1d32
x1d33
x1bf4
x1bf6
x1bf8
x1c01
x1c02
x1c11
x1c12
x1c13
x1c2b
x1c0b
x1c0c
x1c16
x1c18
x1c1a
x1c25
x1c26
x1c27
x1c2f
x1c30
x1c33
x1c34
x1c39
x1c3a
x1c40
x1c41
x1c42
x1c45
x1c46
x1c4b
x1c4c
x1c55
x1c56
x1c57
x1c5d
x1c5f
x1c61
x1c7e
x1c8b
x1c8c
x1c8d
x1c8e
x1c8f
x1c90
x1c91
x1c92
x1c9f
x1ca0
x1ca1
x1ca2
x1ca3
x1ca4
x1ca5
x1ca6
x1ca7
x1ca8
x1ca9
x1caa
x1cab
x1cac
x1cad
x1cb4
x1cb5
x1cb8
x1cb9
x1cba
x1cc2
x1cc3
x1cc6
x1cc7
x1ccc
x1ccd
x1cd5
x1cd6
x1cd7
x1ce1
x1ce2
x1ce3
x1ce6
x1ce8
x1cea
x1cf0
x1cf1
x1cf2
x1cfc
x1cfd
x1d1d
x1d1e
x1d1f
x1d04
x1d05
x1d08
x1d09
x1d0e
x1d0f
x1d17
x1d18
x1d19
x1d26
x1d27
x1d28
x1d3c
x1d3e
x1d3f
x1d42
x1d43
x1d48
x1d49
x1d4f
x1d50
x1d51
x1d54
x1d55
x1d5a
x1d5b
x1d64
x1d65
x1d66
x1d6c
x1d6e
x1d70
x1d8d
x1d9a
x1d9b
x1d9c
x1d9d
x1d9e
x1d9f
x1da0
x1da1
x1daa
x1dab
x1dac
x1dad
x1dae
x1daf
x1db0
x1db1
x1db2
x1db3
x1db4
x1db5
x1db6
x1db7
x1db8
x1dc1
x1dc3
x1dc4
x1dc7
x1dc8
x1dcd
x1dce
x1dd6
x1dd7
x1dd8
x1de2
x1de3
x1e03
x1e04
x1e05
x1dea
x1deb
x1dee
x1def
x1df4
x1df5
x1dfd
x1dfe
x1dff
x1e12
x1e13
x1e21
x1e22
x1e23
x1e24
x1e25
x1e26
x1e2d
x1e37
x1e39
x1e3a
x1e3d
x1e3e
x1e43
x1e44
x1e4c
x1e4d
x1e4e
x1e59
x1e5e
end
